benchmarks_CP/INST_36x36/35/inst36x36_35_65.dzn
S=6;
start=[|
17,	-1,	30,	11,	23,	4,	2,	-1,	-1,	16,	-1,	-1,	-1,	-1,	32,	7,	-1,	-1,	-1,	-1,	-1,	-1,	-1,	-1,	-1,	-1,	22,	13,	-1,	18,	-1,	-1,	28,	-1,	-1,	10|
-1,	-1,	-1,	-1,	-1,	-1,	-1,	35,	-1,	26,	17,	-1,	-1,	-1,	-1,	-1,	-1,	1,	-1,	22,	24,	-1,	-1,	-1,	-1,	6,	-1,	20,	34,	8,	11,	-1,	18,	21,	-1,	-1|
-1,	-1,	34,	19,	-1,	-1,	-1,	32,	-1,	-1,	-1,	28,	-1,	30,	-1,	-1,	-1,	-1,	-1,	-1,	-1,	-1,	-1,	-1,	-1,	17,	-1,	10,	-1,	-1,	29,	13,	-1,	-1,	-1,	-1|
-1,	-1,	18,	-1,	24,	-1,	-1,	-1,	29,	-1,	-1,	-1,	-1,	-1,	11,	-1,	-1,	13,	-1,	-1,	9,	-1,	31,	16,	26,	-1,	1,	19,	-1,	-1,	-1,	33,	-1,	-1,	30,	-1|
-1,	-1,	-1,	-1,	-1,	-1,	-1,	22,	-1,	-1,	14,	13,	-1,	-1,	24,	-1,	21,	8,	-1,	-1,	-1,	-1,	-1,	-1,	-1,	23,	30,	33,	11,	35,	-1,	-1,	5,	15,	-1,	6|
-1,	31,	-1,	-1,	13,	-1,	21,	-1,	11,	24,	-1,	1,	29,	6,	-1,	-1,	22,	-1,	-1,	36,	-1,	-1,	-1,	-1,	32,	12,	-1,	-1,	-1,	-1,	-1,	2,	-1,	-1,	-1,	-1|
23,	-1,	-1,	-1,	-1,	-1,	-1,	-1,	2,	-1,	-1,	-1,	-1,	-1,	-1,	-1,	-1,	-1,	1,	-1,	-1,	-1,	15,	14,	25,	-1,	31,	-1,	8,	12,	-1,	-1,	-1,	28,	29,	-1|
-1,	8,	-1,	9,	-1,	-1,	7,	-1,	3,	-1,	-1,	-1,	28,	-1,	-1,	-1,	-1,	-1,	-1,	-1,	-1,	-1,	-1,	27,	-1,	-1,	-1,	22,	-1,	29,	4,	21,	-1,	-1,	26,	33|
-1,	-1,	16,	-1,	-1,	-1,	-1,	-1,	-1,	-1,	-1,	-1,	10,	34,	-1,	20,	-1,	-1,	24,	-1,	-1,	-1,	-1,	25,	-1,	-1,	-1,	-1,	-1,	-1,	8,	30,	-1,	13,	-1,	9|
-1,	-1,	29,	-1,	21,	20,	-1,	11,	28,	-1,	-1,	-1,	23,	24,	7,	-1,	18,	-1,	8,	-1,	-1,	4,	36,	-1,	-1,	3,	-1,	9,	-1,	-1,	-1,	15,	14,	31,	5,	1|
15,	-1,	22,	-1,	7,	-1,	-1,	-1,	-1,	-1,	-1,	-1,	-1,	-1,	16,	-1,	-1,	-1,	-1,	-1,	12,	9,	-1,	-1,	-1,	-1,	-1,	34,	-1,	-1,	-1,	25,	-1,	-1,	-1,	24|
33,	34,	-1,	-1,	26,	-1,	23,	-1,	-1,	-1,	-1,	-1,	-1,	25,	31,	-1,	-1,	-1,	28,	-1,	-1,	-1,	-1,	-1,	10,	30,	-1,	24,	1,	-1,	27,	-1,	2,	-1,	-1,	-1|
-1,	-1,	-1,	-1,	-1,	-1,	-1,	16,	14,	32,	-1,	-1,	1,	-1,	-1,	25,	-1,	-1,	-1,	-1,	-1,	15,	6,	-1,	-1,	19,	-1,	-1,	-1,	-1,	13,	31,	-1,	2,	4,	26|
9,	-1,	19,	15,	25,	14,	13,	29,	10,	28,	31,	-1,	-1,	11,	26,	18,	-1,	-1,	3,	-1,	27,	-1,	-1,	21,	-1,	32,	12,	-1,	-1,	-1,	-1,	22,	-1,	-1,	16,	-1|
-1,	-1,	32,	5,	-1,	-1,	-1,	-1,	-1,	-1,	22,	26,	30,	-1,	-1,	-1,	10,	-1,	-1,	-1,	35,	-1,	2,	-1,	-1,	-1,	23,	-1,	-1,	-1,	-1,	-1,	-1,	11,	-1,	28|
-1,	-1,	-1,	26,	27,	-1,	-1,	-1,	15,	-1,	8,	-1,	-1,	-1,	-1,	-1,	-1,	-1,	-1,	32,	-1,	12,	-1,	-1,	4,	-1,	6,	-1,	-1,	-1,	-1,	-1,	-1,	20,	-1,	-1|
29,	-1,	7,	-1,	-1,	-1,	-1,	-1,	35,	-1,	-1,	-1,	-1,	-1,	3,	-1,	-1,	-1,	-1,	-1,	-1,	-1,	23,	20,	5,	-1,	-1,	-1,	31,	34,	-1,	17,	-1,	-1,	33,	32|
21,	-1,	-1,	-1,	-1,	31,	27,	-1,	-1,	-1,	-1,	25,	-1,	-1,	-1,	8,	-1,	-1,	-1,	14,	-1,	-1,	-1,	-1,	-1,	10,	24,	-1,	-1,	30,	-1,	5,	19,	9,	-1,	34|
4,	-1,	24,	-1,	-1,	-1,	-1,	-1,	-1,	1,	-1,	14,	16,	-1,	-1,	-1,	-1,	-1,	22,	-1,	-1,	-1,	-1,	-1,	-1,	11,	-1,	-1,	-1,	-1,	-1,	-1,	29,	-1,	-1,	-1|
-1,	32,	-1,	-1,	-1,	12,	-1,	-1,	-1,	10,	-1,	-1,	11,	28,	-1,	15,	-1,	-1,	-1,	-1,	-1,	-1,	-1,	-1,	-1,	-1,	-1,	-1,	13,	-1,	-1,	-1,	-1,	-1,	-1,	-1|
-1,	-1,	-1,	-1,	-1,	-1,	-1,	2,	-1,	-1,	-1,	31,	-1,	-1,	-1,	9,	-1,	18,	6,	29,	-1,	-1,	-1,	-1,	-1,	-1,	36,	30,	10,	-1,	-1,	28,	34,	-1,	-1,	27|
25,	-1,	-1,	-1,	-1,	-1,	-1,	-1,	-1,	-1,	-1,	-1,	3,	36,	6,	-1,	34,	-1,	-1,	4,	21,	-1,	-1,	-1,	12,	31,	28,	-1,	26,	14,	-1,	-1,	20,	-1,	11,	-1|
-1,	-1,	-1,	-1,	28,	16,	-1,	25,	-1,	4,	30,	20,	-1,	-1,	-1,	31,	-1,	-1,	-1,	12,	-1,	-1,	-1,	1,	6,	-1,	2,	-1,	-1,	-1,	-1,	-1,	-1,	10,	-1,	-1|
-1,	-1,	2,	7,	-1,	33,	36,	3,	16,	8,	-1,	-1,	14,	-1,	-1,	-1,	25,	-1,	31,	-1,	-1,	34,	-1,	19,	-1,	-1,	9,	-1,	-1,	-1,	12,	32,	-1,	-1,	24,	-1|
-1,	-1,	26,	34,	-1,	3,	-1,	33,	-1,	-1,	-1,	-1,	-1,	16,	-1,	1,	-1,	-1,	-1,	-1,	-1,	2,	-1,	-1,	-1,	-1,	-1,	35,	-1,	-1,	-1,	-1,	25,	-1,	17,	-1|
20,	-1,	-1,	27,	29,	-1,	11,	10,	-1,	-1,	4,	-1,	33,	-1,	22,	-1,	-1,	-1,	-1,	-1,	-1,	14,	1,	-1,	30,	-1,	3,	18,	-1,	26,	21,	-1,	-1,	32,	-1,	-1|
-1,	6,	14,	-1,	-1,	-1,	-1,	-1,	-1,	9,	-1,	-1,	5,	-1,	-1,	-1,	-1,	19,	15,	-1,	11,	-1,	7,	18,	20,	-1,	17,	16,	12,	-1,	-1,	29,	33,	26,	-1,	30|
-1,	-1,	-1,	-1,	-1,	17,	-1,	28,	-1,	-1,	-1,	35,	-1,	-1,	8,	-1,	11,	-1,	33,	-1,	16,	-1,	26,	-1,	22,	-1,	7,	-1,	-1,	32,	-1,	1,	13,	27,	-1,	-1|
-1,	-1,	-1,	-1,	-1,	-1,	-1,	14,	-1,	-1,	-1,	-1,	6,	-1,	28,	-1,	-1,	9,	-1,	-1,	17,	-1,	-1,	-1,	-1,	24,	-1,	-1,	-1,	15,	-1,	20,	31,	-1,	34,	5|
-1,	-1,	-1,	-1,	33,	-1,	16,	-1,	-1,	19,	-1,	-1,	17,	31,	-1,	26,	4,	-1,	20,	-1,	-1,	25,	-1,	-1,	-1,	21,	10,	1,	29,	-1,	-1,	-1,	-1,	-1,	-1,	11|
-1,	-1,	-1,	-1,	17,	-1,	-1,	15,	8,	14,	20,	-1,	-1,	-1,	-1,	-1,	-1,	33,	5,	-1,	-1,	6,	-1,	-1,	-1,	25,	-1,	-1,	-1,	-1,	31,	-1,	11,	-1,	-1,	-1|
-1,	-1,	5,	24,	-1,	25,	26,	31,	21,	-1,	-1,	-1,	-1,	-1,	12,	-1,	-1,	-1,	-1,	-1,	36,	-1,	-1,	-1,	-1,	-1,	-1,	6,	-1,	-1,	-1,	-1,	-1,	30,	-1,	-1|
-1,	26,	-1,	8,	11,	-1,	-1,	-1,	24,	-1,	28,	-1,	-1,	-1,	-1,	-1,	-1,	-1,	21,	-1,	-1,	3,	20,	-1,	1,	-1,	-1,	-1,	15,	-1,	25,	9,	-1,	-1,	32,	36|
1,	29,	-1,	-1,	31,	-1,	-1,	-1,	5,	-1,	-1,	33,	21,	-1,	9,	-1,	-1,	27,	-1,	-1,	-1,	26,	-1,	35,	-1,	-1,	-1,	-1,	20,	-1,	24,	12,	-1,	22,	-1,	7|
27,	14,	28,	-1,	15,	-1,	3,	-1,	-1,	-1,	29,	-1,	-1,	-1,	-1,	-1,	35,	20,	-1,	-1,	30,	-1,	-1,	-1,	-1,	-1,	-1,	-1,	-1,	23,	5,	-1,	26,	-1,	-1,	-1|
-1,	33,	-1,	18,	-1,	-1,	-1,	7,	6,	11,	-1,	32,	-1,	-1,	-1,	13,	-1,	-1,	-1,	-1,	-1,	28,	-1,	-1,	-1,	5,	-1,	-1,	-1,	-1,	-1,	-1,	15,	-1,	8,	2|];
